129 130 131 132 133 134 135 136 137 138 139 140 141 151 150 149 152 148 147 142 143 144 145 146 153 157 158 159 156 155 154 164 166 167 163 168 162 160 161 113 112 114 115 116 117 106 105 104 103 547 546 545 544 543 541 542 107 109 108 173 174 175 172 110 111 170 171 169 180 181 179 182 183 184 185 186 188 187 178 177 176 540 538 539 537 536 535 534 487 486 485 484 483 481 482 475 476 480 479 477 478 548 549 560 561 562 563 564 565 566 567 568 569 570 474 473 472 494 495 471 469 468 467 466 464 465 470 496 497 519 518 520 521 522 523 526 491 492 525 524 493 490 529 528 527 512 513 514 517 515 516 509 510 511 236 235 234 232 233 530 531 489 488 533 532 231 230 229 228 227 189 225 226 190 191 192 193 194 195 196 197 198 199 200 201 165 203 204 202 208 207 206 205 209 210 211 212 213 214 215 216 217 221 220 218 219 222 224 223 246 247 245 239 238 237 240 243 244 242 241 248 249 250 251 252 254 253 255 256 257 300 258 259 260 261 262 263 264 266 265 299 298 267 271 268 269 272 273 274 275 292 270 296 295 294 293 291 290 289 288 276 277 278 279 282 281 280 287 286 285 284 283 334 335 336 337 338 339 333 332 331 330 340 341 343 344 345 346 362 363 361 348 347 350 349 358 359 360 401 402 403 404 405 408 407 406 400 399 397 398 364 365 342 366 367 368 369 370 372 371 396 394 393 395 375 376 377 378 379 380 381 392 391 390 389 388 387 386 382 385 409 384 383 410 411 412 356 357 355 354 353 352 351 415 416 414 413 417 418 419 420 421 422 423 424 425 426 427 428 429 431 430 432 433 434 435 436 437 438 454 439 443 444 445 442 446 447 448 449 440 441 450 451 311 310 309 312 313 316 314 315 374 373 322 323 325 326 327 328 329 324 297 321 320 319 317 318 305 306 304 303 301 302 508 507 506 307 308 505 504 503 502 498 501 500 499 453 452 461 462 463 460 459 458 457 456 455 3 2 1 4 0 5 573 571 572 6 7 8 9 10 11 12 13 14 15 16 17 18 19 20 21 23 22 24 25 26 27 28 29 31 30 32 33 34 35 36 37 38 39 42 41 40 557 558 559 550 551 101 102 98 99 100 552 553 554 556 555 46 45 44 43 47 48 49 54 53 55 56 83 82 84 51 52 50 86 85 91 92 93 94 97 96 95 89 88 90 87 81 57 58 59 60 61 63 62 79 80 78 77 76 64 75 74 73 119 118 120 121 122 123 71 72 65 66 67 68 70 69 124 125 126 127 128